NAME : amtsp.-77642.tour
COMMENT : Length = -77642
COMMENT : Found by LKH [Keld Helsgaun] Mon Apr 15 11:15:42 2024
TYPE : TOUR
DIMENSION : 102
TOUR_SECTION
1
2
3
4
5
6
7
8
9
10
11
12
13
14
15
16
17
20
21
22
94
93
19
18
90
91
92
95
96
97
28
31
30
29
86
87
88
89
82
83
81
80
79
84
85
36
35
34
39
38
37
78
77
76
75
74
73
72
43
42
45
44
71
70
69
68
67
66
65
60
59
58
57
56
55
54
53
52
51
50
49
62
61
64
63
48
47
46
41
40
33
32
27
26
98
25
24
23
100
99
101
102
-1
EOF
